units            metal
atom_style       atomic
boundary         p p p

include          ../build/Ar.vars
pair_style       lj/cut ${cutoff}
neighbor         ${skin} bin
neigh_modify     every ${skip_neighbor} delay 0
read_data	     ../build/Ar.data

timestep         ${dt}

variable         t  equal step*${dt}
variable         s  equal step
variable	     dL equal ${box_length}/${N_slabs}

compute          T all temp
compute          P all pressure T

compute         ke all ke/atom
compute         pe all pe/atom
compute         stress all stress/atom NULL virial
compute         flux all heat/flux ke pe stress
compute 		chunk1 all chunk/atom bin/1d z 0.0 ${dL} units lattice

variable         T  equal c_T
variable         TE equal etotal
variable         KE equal ke
variable         PE equal pe
variable         P  equal c_P

thermo           ${skip_thermo}
thermo_style     custom v_t temp v_KE

fix               NPT all npt [args...]
run              ${N_steps}

fix               NVE all nve
fix               MPE all thermal/conductivity ${skip_swap} z ${N_slabs}
variable          MP  equal f_MPE
fix               PNT all print ${skip_swap} "${t} ${MP}" append MP.dat
fix 		      KEA all ave/chunk 1 ${skip_swap} ${skip_swap} chunk1 temp file Tregions.dat

#fix 		      KEA all ave/spatial 1 ${skip_swap} ${skip_swap} z 0 ${dL} temp units lattice file Tregions.dat

run              ${N_steps}
